Route #1: 109 21 29 20 23 26 22 24 27 31 30 33 34 36 35 32 28 25 19 16 17
Route #2: 98 68 73 76 77 79 80 78 72 75 74 71 69 70 67
Route #3: 37 38 39 42 41 44 47 46 49 50 51 48 45 43 40 110
Route #4: 100 53 55 56 58 60 63 66 64 62 61 65 59 57 54 52
Route #5: 111 86 85 112 84 117 83 113 90 114 108 118 18 91 89 92 87
Route #6: 8 12 13 14 15 11 10 9 3 4 5 6 7 1 2 88
Route #7: 120 105 106 95 96 93 94 97 115 116 103 104 107 99 101 102 119 81 82
Cost 1069.6228521813778